cmake-build-cppclion/linear_programming/sddp_overdraft/iter_6.sol
# Solution for model (null)_copy
# Objective value = -5.4204714104958725e+02
q_1 0
W0_1 0
W1_1 50
W2_1 0
theta_2 -5.9704714104958725e+02
